c Generated map
c Size: 9 * 9, weights in range: 1 to 10, walls: True, with ratio 0.05
c dim 7 of 8
c
p sp 81 130
c graph contains 81 nodes and 130 arcs
c
a 1 10 10
a 10 1 10
a 1 2 9
a 2 1 9
a 2 11 8
a 11 2 8
a 2 3 7
a 3 2 7
a 3 12 9
a 12 3 9
a 3 4 3
a 4 3 3
a 4 13 5
a 13 4 5
a 4 5 10
a 5 4 10
a 5 14 9
a 14 5 9
a 5 6 7
a 6 5 7
a 6 15 10
a 15 6 10
a 6 7 8
a 7 6 8
a 7 16 6
a 16 7 6
a 7 8 1
a 8 7 1
a 8 17 3
a 17 8 3
a 8 9 9
a 9 8 9
a 9 18 8
a 18 9 8
a 10 19 9
a 19 10 9
a 10 11 5
a 11 10 5
a 11 20 3
a 20 11 3
a 11 12 4
a 12 11 4
a 12 21 5
a 21 12 5
a 12 13 2
a 13 12 2
a 13 22 6
a 22 13 6
a 13 14 3
a 14 13 3
a 14 23 5
a 23 14 5
a 14 15 3
a 15 14 3
a 15 24 5
a 24 15 5
a 15 16 3
a 16 15 3
a 16 25 1
a 25 16 1
a 16 17 1
a 17 16 1
a 17 26 4
a 26 17 4
a 17 18 9
a 18 17 9
a 18 27 8
a 27 18 8
a 19 28 10
a 28 19 10
a 19 20 8
a 20 19 8
a 20 29 8
a 29 20 8
a 20 21 4
a 21 20 4
a 21 30 8
a 30 21 8
a 21 22 7
a 22 21 7
a 22 31 10
a 31 22 10
a 22 23 9
a 23 22 9
a 23 24 9
a 24 23 9
a 24 33 3
a 33 24 3
a 24 25 3
a 25 24 3
a 25 26 1
a 26 25 1
a 26 35 8
a 35 26 8
a 26 27 8
a 27 26 8
a 27 36 4
a 36 27 4
a 28 37 3
a 37 28 3
a 28 29 1
a 29 28 1
a 29 38 8
a 38 29 8
a 29 30 10
a 30 29 10
a 30 39 2
a 39 30 2
a 30 31 10
a 31 30 10
a 31 40 7
a 40 31 7
a 33 42 9
a 42 33 9
a 35 44 2
a 44 35 2
a 35 36 5
a 36 35 5
a 36 45 10
a 45 36 10
a 37 46 4
a 46 37 4
a 37 38 7
a 38 37 7
a 38 47 6
a 47 38 6
a 38 39 3
a 39 38 3
a 39 48 7
a 48 39 7
a 39 40 7
a 40 39 7
a 40 49 10
a 49 40 10
a 40 41 8
a 41 40 8
a 41 50 10
a 50 41 10
a 41 42 4
a 42 41 4
a 42 51 3
a 51 42 3
a 42 43 9
a 43 42 9
a 43 52 5
a 52 43 5
a 43 44 7
a 44 43 7
a 44 53 8
a 53 44 8
a 44 45 2
a 45 44 2
a 45 54 4
a 54 45 4
a 46 55 3
a 55 46 3
a 46 47 9
a 47 46 9
a 47 56 5
a 56 47 5
a 47 48 8
a 48 47 8
a 48 57 5
a 57 48 5
a 48 49 8
a 49 48 8
a 49 58 10
a 58 49 10
a 49 50 4
a 50 49 4
a 50 59 4
a 59 50 4
a 50 51 9
a 51 50 9
a 51 60 3
a 60 51 3
a 51 52 8
a 52 51 8
a 52 61 10
a 61 52 10
a 52 53 3
a 53 52 3
a 53 62 5
a 62 53 5
a 53 54 5
a 54 53 5
a 54 63 3
a 63 54 3
a 55 64 6
a 64 55 6
a 55 56 10
a 56 55 10
a 56 65 7
a 65 56 7
a 56 57 6
a 57 56 6
a 57 66 6
a 66 57 6
a 57 58 8
a 58 57 8
a 58 59 10
a 59 58 10
a 59 68 10
a 68 59 10
a 59 60 4
a 60 59 4
a 60 69 6
a 69 60 6
a 60 61 5
a 61 60 5
a 61 70 2
a 70 61 2
a 61 62 4
a 62 61 4
a 62 71 10
a 71 62 10
a 62 63 8
a 63 62 8
a 63 72 10
a 72 63 10
a 64 73 1
a 73 64 1
a 64 65 3
a 65 64 3
a 65 74 2
a 74 65 2
a 65 66 9
a 66 65 9
a 66 75 2
a 75 66 2
a 68 77 1
a 77 68 1
a 68 69 3
a 69 68 3
a 69 78 3
a 78 69 3
a 69 70 1
a 70 69 1
a 70 79 3
a 79 70 3
a 70 71 6
a 71 70 6
a 71 80 4
a 80 71 4
a 71 72 9
a 72 71 9
a 72 81 5
a 81 72 5
a 73 74 10
a 74 73 10
a 74 75 5
a 75 74 5
a 77 78 4
a 78 77 4
a 78 79 3
a 79 78 3
a 79 80 9
a 80 79 9
a 80 81 10
a 81 80 10
